c WARNING: for repeatability, setting FPU to use double precision
d VARIABLES            216460       
d CONSTRAINTS          802116       
c ============================[ Problem Statistics ]=============================
c |                                                                             |
c |  Number of variables:        216460                                         |
c |  Number of clauses:          802116                                         |
c |  Parse time:                   0.14 s                                       |
c |                                                                             |
c ============================[ Search Statistics ]==============================
c | Conflicts |          ORIGINAL         |          LEARNT          | Progress |
c |           |    Vars  Clauses Literals |    Limit  Clauses Lit/Cl |          |
c ===============================================================================
c |       100 |  180209   709674  1780907 |   260213      100     28 | 16.747 % |
c |       250 |  180209   709674  1780907 |   286235      250     38 | 16.747 % |
c |       475 |  180209   709674  1780907 |   314858      475     52 | 16.747 % |
c |       812 |  180209   709674  1780907 |   346344      812     42 | 16.747 % |
c |      1318 |  180209   709674  1780907 |   380979     1318     74 | 16.747 % |
c |      2077 |  180209   709674  1780907 |   419076     2077     52 | 16.747 % |
c |      3216 |  180209   709674  1780907 |   460984     3216     57 | 16.747 % |
c |      4924 |  180209   709674  1780907 |   507083     4924     45 | 16.747 % |
c |      7486 |  180209   709674  1780907 |   557791     7486     37 | 16.747 % |
c |     11330 |  180209   709674  1780907 |   613570    11330     29 | 16.747 % |
c |     17096 |  180209   709674  1780907 |   674927    17096     31 | 16.747 % |
c |     25745 |  180209   709674  1780907 |   742420    25745     36 | 16.747 % |
c |     38719 |  180209   709674  1780907 |   816662    38719     38 | 16.747 % |
c |     58180 |  180209   709674  1780907 |   898328    58180     45 | 16.747 % |
c |     87372 |  180209   709674  1780907 |   988161    87372     56 | 16.747 % |
c |    131161 |  180209   709674  1780907 |  1086977   131161     66 | 16.747 % |
c |    196845 |  180208   709670  1780897 |  1195675   196844     82 | 16.748 % |
c |    295371 |  180208   709670  1780897 |  1315242   295370    124 | 16.748 % |
c |    443160 |  180208   709670  1780897 |  1446767   443159    135 | 16.748 % |
c ===============================================================================
c restarts              : 1276
c conflicts             : 594964         (1193 /sec)
c decisions             : 4019743        (0.00 % random) (8059 /sec)
c propagations          : 1921447500     (3852332 /sec)
c conflict literals     : 96179275       (21.30 % deleted)
d RESTARTS             1276
d FAILURES             594964       
d NODES                4019743      
d BACKTRACKS           4019743      
d PROPAGATIONS         1921447500   
d NOGOODSIZE           161.66 
d MEMORY               636.00 
d TIME                 498.775 

s SATISFIABLE
